num_clientes = 2;
num_dias = 20;
num_plantas = 3;
min_porcent_demanda = 60;
reg_alto_dias = 1;
reg_alto_porcent = 90;
costo = [48, 23, 31];
capacidad = [1170, 390, 635];
pago = [66, 65];
demanda = [| 780,  790
          | 785,  795
          | 790,  800
          | 795,  805
          | 800,  810
          | 805,  815
          | 810,  820
          | 815,  825
          | 820,  830
          | 825,  835
          | 830,  840
          | 835,  845
          | 840,  850
          | 845,  855
          | 850,  860
          | 855,  865
          | 860,  870
          | 865,  875
          | 870,  880
          | 875,  885 |];
